nN = 4;
nR = 17;
nH = 1;

a = [[6, 13, 5, 17, 24, 25, 16, 24, 20, 11, 23, 23, 11, 20, 19, 13, 12], [25, 16, 13, 18, 22, 18, 16, 16, 23, 21, 16, 21, 5, 18, 15, 10, 9], [15, 25, 20, 5, 17, 13, 25, 25, 10, 9, 19, 22, 12, 12, 11, 10, 5], [5, 15, 18, 20, 12, 25, 25, 11, 5, 15, 25, 19, 6, 20, 22, 18, 8]];
c = [[[0, 0, 0, 0, 0, 0, 0, 0, 0, 0, 0, 0, 0, 0, 0, 0, 0], [36, 32, 44, 41, 47, 36, 31, 37, 41, 49, 48, 32, 44, 37, 42, 31, 47], [48, 32, 40, 49, 48, 33, 38, 35, 38, 39, 39, 31, 43, 39, 36, 31, 34], [36, 37, 45, 37, 45, 32, 35, 39, 31, 37, 36, 34, 42, 36, 32, 46, 35]], [[0, 0, 0, 0, 0, 0, 0, 0, 0, 0, 0, 0, 0, 0, 0, 0, 0], [0, 0, 0, 0, 0, 0, 0, 0, 0, 0, 0, 0, 0, 0, 0, 0, 0], [32, 45, 37, 47, 45, 49, 32, 33, 40, 38, 35, 47, 41, 46, 34, 42, 30], [43, 41, 50, 45, 37, 46, 36, 40, 38, 41, 31, 49, 46, 44, 34, 35, 41]], [[0, 0, 0, 0, 0, 0, 0, 0, 0, 0, 0, 0, 0, 0, 0, 0, 0], [0, 0, 0, 0, 0, 0, 0, 0, 0, 0, 0, 0, 0, 0, 0, 0, 0], [0, 0, 0, 0, 0, 0, 0, 0, 0, 0, 0, 0, 0, 0, 0, 0, 0], [37, 40, 32, 48, 46, 44, 38, 34, 37, 34, 30, 39, 44, 32, 35, 34, 33]], [[0, 0, 0, 0, 0, 0, 0, 0, 0, 0, 0, 0, 0, 0, 0, 0, 0], [0, 0, 0, 0, 0, 0, 0, 0, 0, 0, 0, 0, 0, 0, 0, 0, 0], [0, 0, 0, 0, 0, 0, 0, 0, 0, 0, 0, 0, 0, 0, 0, 0, 0], [0, 0, 0, 0, 0, 0, 0, 0, 0, 0, 0, 0, 0, 0, 0, 0, 0]]];
Q = [[45], [56], [58], [53]];

q = [[[10], [10], [15], [7], [8], [24], [8], [6], [8], [25], [11], [17], [24], [8], [20], [6], [16]], [[11], [21], [17], [11], [21], [6], [7], [17], [16], [14], [6], [25], [19], [24], [18], [20], [24]], [[24], [14], [24], [20], [15], [24], [5], [22], [24], [25], [6], [8], [24], [25], [9], [5], [16]], [[9], [16], [6], [23], [7], [21], [19], [18], [11], [20], [9], [20], [18], [11], [13], [21], [23]]];
p = [0.63, 0.19, 0.86, 0.72, 0.06, 0.71, 0.52, 0.11, 0.55, 0.55, 0.47, 0.17, 0.9, 0.29, 0.61, 0.56, 0.13];
